N = 9;
H = 5;
T = 2;

avail = array3d(1..N, 1..H, 1..T, [5, 5, 9, 9, 3, 1, 4, 0, 3, 9, 7, 7, 4, 4, 1, 4, 6, 5, 7, 10, 0, 2, 6, 9, 4, 1, 10, 8, 6, 1, 5, 8, 7, 1, 2, 0, 6, 3, 10, 2, 5, 4, 9, 3, 4, 4, 9, 4, 0, 7, 1, 8, 5, 9, 9, 2, 5, 2, 9, 2, 0, 5, 8, 9, 4, 2, 10, 1, 3, 7, 3, 7, 5, 6, 2, 8, 3, 6, 0, 4, 1, 6, 6, 2, 4, 8, 6, 3, 6, 2]);

r = array2d(1..H, 1..T, [2, 4, 1, 3, 3, 3, 0, 1, 4, 4]);
